p tdp 20 111
1 3
1 4
1 5
1 6
1 7
1 11
1 12
1 13
1 15
1 17
1 18
1 19
1 20
2 3
2 4
2 5
2 9
2 10
2 11
2 14
2 15
2 17
2 18
2 19
2 20
3 4
3 6
3 8
3 9
3 20
4 5
4 6
4 7
4 8
4 9
4 10
4 15
4 16
4 20
5 7
5 8
5 12
5 13
5 17
5 18
5 19
5 20
6 7
6 10
6 11
6 13
6 15
6 19
7 9
7 11
7 12
7 13
7 14
7 15
7 16
7 17
7 19
7 20
8 9
8 11
8 13
8 14
8 15
8 16
8 17
8 18
8 19
8 20
9 10
9 11
9 13
9 14
9 15
9 16
9 18
10 12
10 13
10 16
10 17
10 18
10 19
10 20
11 13
11 14
11 16
11 17
11 18
12 14
12 16
12 17
12 18
12 19
12 20
13 16
13 17
13 19
14 16
14 17
14 18
14 19
15 16
15 18
15 19
15 20
16 17
18 19
